c this is a comment line
c each comment line starts with lowercase c
ccc one more comment line, then we will have the problem line
p cnf 4 3
1 -2 3 0
-1 0
-3 4 0
cc a comment line is possible after all clauses are defined
% even a redundant stuff which is not a comment line is possible
